This is Ipopt version 3.14.14, running with linear solver MUMPS 5.6.2.

Number of nonzeros in equality constraint Jacobian...:        0
Number of nonzeros in inequality constraint Jacobian.:        4
Number of nonzeros in Lagrangian Hessian.............:        0

Total number of variables............................:        2
                     variables with only lower bounds:        0
                variables with lower and upper bounds:        0
                     variables with only upper bounds:        0
Total number of equality constraints.................:        0
Total number of inequality constraints...............:        2
        inequality constraints with only lower bounds:        0
   inequality constraints with lower and upper bounds:        0
        inequality constraints with only upper bounds:        2

iter    objective    inf_pr   inf_du lg(mu)  ||d||  lg(rg) alpha_du alpha_pr  ls
   0 -5.0000000e-01 0.00e+00 7.45e-09   0.0 0.00e+00    -  0.00e+00 0.00e+00   0
   1 -1.1300003e+00 0.00e+00 1.64e-01  -6.1 6.36e-01    -  1.00e+00 9.90e-01f  1
   2 -1.4226015e+00 2.38e-02 1.57e-02  -6.7 1.06e+00    -  1.00e+00 9.90e-01h  1
   3 -1.4140411e+00 0.00e+00 7.74e-01  -3.1 6.52e-02    -  1.00e+00 9.99e-01h  1
   4 -1.4142119e+00 0.00e+00 6.50e+00  -9.9 6.58e-04    -  1.00e+00 9.90e-01h  1
   5 -1.4142135e+00 0.00e+00 1.98e-09  -7.9 6.54e-06    -  1.00e+00 9.95e-01h  1
   6 -1.4142136e+00 0.00e+00 5.97e-10 -11.0 6.57e-08    -  1.00e+00 1.00e+00h  1

Number of Iterations....: 6

                                   (scaled)                 (unscaled)
Objective...............:  -1.4142135658986292e+00   -1.4142135658986292e+00
Dual infeasibility......:   5.9712257360899912e-10    5.9712257360899912e-10
Constraint violation....:   0.0000000000000000e+00    0.0000000000000000e+00
Variable bound violation:   0.0000000000000000e+00    0.0000000000000000e+00
Complementarity.........:   1.0065813408863811e-11    1.0065813408863811e-11
Overall NLP error.......:   5.9712257360899912e-10    5.9712257360899912e-10


Number of objective function evaluations             = 7
Number of objective gradient evaluations             = 7
Number of equality constraint evaluations            = 0
Number of inequality constraint evaluations          = 7
Number of equality constraint Jacobian evaluations   = 0
Number of inequality constraint Jacobian evaluations = 7
Number of Lagrangian Hessian evaluations             = 0
Total seconds in IPOPT                               = 0.228

EXIT: Optimal Solution Found.
